files/upTests/__failed/115/0005.eprime
language ESSENCE' 1.0

given n_flights: int(1..20)
given n_planes: int(1..20)
find route_FunctionAsReln_RelationAsSet_SetExplicitVarSize_tuple1:
        matrix indexed by [int(1..n_planes * (n_flights + 1) ** n_flights)] of bool
find route_FunctionAsReln_RelationAsSet_SetExplicitVarSize_tuple2_tuple1:
        matrix indexed by [int(1..n_planes
                                  *
                                  (n_flights + 1) ** n_flights)] of int(1..n_planes)
find route_FunctionAsReln_RelationAsSet_SetExplicitVarSize_tuple2_tuple2_Function1DPartial_tuple1:
        matrix indexed by [int(1..n_planes * (n_flights + 1) ** n_flights),
                           int(1..n_flights)] of bool
find route_FunctionAsReln_RelationAsSet_SetExplicitVarSize_tuple2_tuple2_Function1DPartial_tuple2:
        matrix indexed by [int(1..n_planes * (n_flights + 1) ** n_flights),
                           int(1..n_flights)] of int(1..n_flights)
such that
    forAll v__0 : int(1..n_planes * (n_flights + 1) ** n_flights)
        . route_FunctionAsReln_RelationAsSet_SetExplicitVarSize_tuple1[v__0]
          ->
          (forAll v__1 : int(1..n_flights)
               . !route_FunctionAsReln_RelationAsSet_SetExplicitVarSize_tuple2_tuple2_Function1DPartial_tuple1[v__0,
                                                                                                               v__1]
                 ->
                 route_FunctionAsReln_RelationAsSet_SetExplicitVarSize_tuple2_tuple2_Function1DPartial_tuple2[v__0,
                                                                                                              v__1]
                 =
                 1),
    forAll v__0 : int(1..n_planes * (n_flights + 1) ** n_flights)
        . !route_FunctionAsReln_RelationAsSet_SetExplicitVarSize_tuple1[v__0]
          ->
          route_FunctionAsReln_RelationAsSet_SetExplicitVarSize_tuple2_tuple1[v__0] = 1
          /\
          (forAll v__1 : int(1..n_flights)
               . !route_FunctionAsReln_RelationAsSet_SetExplicitVarSize_tuple2_tuple2_Function1DPartial_tuple1[v__0,
                                                                                                               v__1]
                 /\
                 route_FunctionAsReln_RelationAsSet_SetExplicitVarSize_tuple2_tuple2_Function1DPartial_tuple2[v__0,
                                                                                                              v__1]
                 =
                 1),
    forAll v__0 : int(1..n_planes * (n_flights + 1) ** n_flights - 1)
        . route_FunctionAsReln_RelationAsSet_SetExplicitVarSize_tuple1[v__0 + 1]
          ->
          route_FunctionAsReln_RelationAsSet_SetExplicitVarSize_tuple2_tuple1[v__0]
          <
          route_FunctionAsReln_RelationAsSet_SetExplicitVarSize_tuple2_tuple1[v__0 + 1]
          \/
          route_FunctionAsReln_RelationAsSet_SetExplicitVarSize_tuple2_tuple1[v__0]
          =
          route_FunctionAsReln_RelationAsSet_SetExplicitVarSize_tuple2_tuple1[v__0 + 1]
          /\
          (route_FunctionAsReln_RelationAsSet_SetExplicitVarSize_tuple2_tuple2_Function1DPartial_tuple1[v__0,
                                                                                                        1]
           <
           route_FunctionAsReln_RelationAsSet_SetExplicitVarSize_tuple2_tuple2_Function1DPartial_tuple1[v__0
                                                                                                        +
                                                                                                        1,
                                                                                                        1]
           \/
           route_FunctionAsReln_RelationAsSet_SetExplicitVarSize_tuple2_tuple2_Function1DPartial_tuple1[v__0,
                                                                                                        1]
           =
           route_FunctionAsReln_RelationAsSet_SetExplicitVarSize_tuple2_tuple2_Function1DPartial_tuple1[v__0
                                                                                                        +
                                                                                                        1,
                                                                                                        1]
           /\
           route_FunctionAsReln_RelationAsSet_SetExplicitVarSize_tuple2_tuple2_Function1DPartial_tuple2[v__0,
                                                                                                        1]
           <
           route_FunctionAsReln_RelationAsSet_SetExplicitVarSize_tuple2_tuple2_Function1DPartial_tuple2[v__0
                                                                                                        +
                                                                                                        1,
                                                                                                        1]
           \/
           route_FunctionAsReln_RelationAsSet_SetExplicitVarSize_tuple2_tuple2_Function1DPartial_tuple1[v__0,
                                                                                                        1]
           =
           route_FunctionAsReln_RelationAsSet_SetExplicitVarSize_tuple2_tuple2_Function1DPartial_tuple1[v__0
                                                                                                        +
                                                                                                        1,
                                                                                                        1]
           /\
           route_FunctionAsReln_RelationAsSet_SetExplicitVarSize_tuple2_tuple2_Function1DPartial_tuple2[v__0,
                                                                                                        1]
           =
           route_FunctionAsReln_RelationAsSet_SetExplicitVarSize_tuple2_tuple2_Function1DPartial_tuple2[v__0
                                                                                                        +
                                                                                                        1,
                                                                                                        1]
           /\
           (route_FunctionAsReln_RelationAsSet_SetExplicitVarSize_tuple2_tuple2_Function1DPartial_tuple1[v__0,
                                                                                                         2]
            <
            route_FunctionAsReln_RelationAsSet_SetExplicitVarSize_tuple2_tuple2_Function1DPartial_tuple1[v__0
                                                                                                         +
                                                                                                         1,
                                                                                                         2]
            \/
            route_FunctionAsReln_RelationAsSet_SetExplicitVarSize_tuple2_tuple2_Function1DPartial_tuple1[v__0,
                                                                                                         2]
            =
            route_FunctionAsReln_RelationAsSet_SetExplicitVarSize_tuple2_tuple2_Function1DPartial_tuple1[v__0
                                                                                                         +
                                                                                                         1,
                                                                                                         2]
            /\
            route_FunctionAsReln_RelationAsSet_SetExplicitVarSize_tuple2_tuple2_Function1DPartial_tuple2[v__0,
                                                                                                         2]
            <
            route_FunctionAsReln_RelationAsSet_SetExplicitVarSize_tuple2_tuple2_Function1DPartial_tuple2[v__0
                                                                                                         +
                                                                                                         1,
                                                                                                         2])),
    forAll v__0 : int(1..n_planes * (n_flights + 1) ** n_flights - 1)
        . route_FunctionAsReln_RelationAsSet_SetExplicitVarSize_tuple1[v__0 + 1]
          ->
          route_FunctionAsReln_RelationAsSet_SetExplicitVarSize_tuple1[v__0],
    forAll v__0 : int(1..n_planes)
        . (sum v__1 : int(1..n_planes * (n_flights + 1) ** n_flights)
               . route_FunctionAsReln_RelationAsSet_SetExplicitVarSize_tuple1[v__1]
                 *
                 (v__0
                  =
                  route_FunctionAsReln_RelationAsSet_SetExplicitVarSize_tuple2_tuple1[v__1]))
          =
          1
