files/upTests/__failed/115/0005.eprime.solution
language ESSENCE' 1.0
$ minion Nodes: 2
$ minion TotalTime: 0.001213
$ minion TimeOut: 0
$ Savile Row TotalTime: 0.324
letting route_FunctionAsReln_RelationAsSet_SetExplicitVarSize_tuple1 be [true, false;int(1..2)]
letting route_FunctionAsReln_RelationAsSet_SetExplicitVarSize_tuple2_tuple1 be [1, 1;int(1..2)]
letting route_FunctionAsReln_RelationAsSet_SetExplicitVarSize_tuple2_tuple2_Function1DPartial_tuple1 be 
    [[false;int(1)], [false;int(1)];int(1..2)]
letting route_FunctionAsReln_RelationAsSet_SetExplicitVarSize_tuple2_tuple2_Function1DPartial_tuple2 be 
    [[1;int(1)], [1;int(1)];int(1..2)]
